(set-option :produce-models true)
(declare-fun iniMes_mes0_aceite0 () Int)
(declare-fun comprado_mes0_aceite0 () Int)
(declare-fun refinado_mes0_aceite0 () Int)
(declare-fun iniMes_mes0_aceite1 () Int)
(declare-fun comprado_mes0_aceite1 () Int)
(declare-fun refinado_mes0_aceite1 () Int)
(declare-fun iniMes_mes0_aceite2 () Int)
(declare-fun comprado_mes0_aceite2 () Int)
(declare-fun refinado_mes0_aceite2 () Int)
(declare-fun iniMes_mes0_aceite3 () Int)
(declare-fun comprado_mes0_aceite3 () Int)
(declare-fun refinado_mes0_aceite3 () Int)
(declare-fun iniMes_mes0_aceite4 () Int)
(declare-fun comprado_mes0_aceite4 () Int)
(declare-fun refinado_mes0_aceite4 () Int)
(declare-fun iniMes_mes1_aceite0 () Int)
(declare-fun comprado_mes1_aceite0 () Int)
(declare-fun refinado_mes1_aceite0 () Int)
(declare-fun iniMes_mes1_aceite1 () Int)
(declare-fun comprado_mes1_aceite1 () Int)
(declare-fun refinado_mes1_aceite1 () Int)
(declare-fun iniMes_mes1_aceite2 () Int)
(declare-fun comprado_mes1_aceite2 () Int)
(declare-fun refinado_mes1_aceite2 () Int)
(declare-fun iniMes_mes1_aceite3 () Int)
(declare-fun comprado_mes1_aceite3 () Int)
(declare-fun refinado_mes1_aceite3 () Int)
(declare-fun iniMes_mes1_aceite4 () Int)
(declare-fun comprado_mes1_aceite4 () Int)
(declare-fun refinado_mes1_aceite4 () Int)
(declare-fun totalRefinado_mes0 () Int)
(declare-fun totalRefinado_mes1 () Int)
(declare-fun ganancias () Int)
(declare-fun costeAlmacMes () Int)
(declare-fun costeAceiteCompra () Int)
(declare-fun costes () Int)
(declare-fun beneficio () Int)
(assert (<= 0 iniMes_mes0_aceite0 ) )
(assert (<= iniMes_mes0_aceite0 1500 ) )
(assert (<= 0 comprado_mes0_aceite0 ) )
(assert (<= comprado_mes0_aceite0 1500 ) )
(assert (<= 0 refinado_mes0_aceite0 ) )
(assert (<= refinado_mes0_aceite0 1500 ) )
(assert (<= 0 iniMes_mes0_aceite1 ) )
(assert (<= iniMes_mes0_aceite1 1500 ) )
(assert (<= 0 comprado_mes0_aceite1 ) )
(assert (<= comprado_mes0_aceite1 1500 ) )
(assert (<= 0 refinado_mes0_aceite1 ) )
(assert (<= refinado_mes0_aceite1 1500 ) )
(assert (<= 0 iniMes_mes0_aceite2 ) )
(assert (<= iniMes_mes0_aceite2 1500 ) )
(assert (<= 0 comprado_mes0_aceite2 ) )
(assert (<= comprado_mes0_aceite2 1500 ) )
(assert (<= 0 refinado_mes0_aceite2 ) )
(assert (<= refinado_mes0_aceite2 1500 ) )
(assert (<= 0 iniMes_mes0_aceite3 ) )
(assert (<= iniMes_mes0_aceite3 1500 ) )
(assert (<= 0 comprado_mes0_aceite3 ) )
(assert (<= comprado_mes0_aceite3 1500 ) )
(assert (<= 0 refinado_mes0_aceite3 ) )
(assert (<= refinado_mes0_aceite3 1500 ) )
(assert (<= 0 iniMes_mes0_aceite4 ) )
(assert (<= iniMes_mes0_aceite4 1500 ) )
(assert (<= 0 comprado_mes0_aceite4 ) )
(assert (<= comprado_mes0_aceite4 1500 ) )
(assert (<= 0 refinado_mes0_aceite4 ) )
(assert (<= refinado_mes0_aceite4 1500 ) )
(assert (<= 0 iniMes_mes1_aceite0 ) )
(assert (<= iniMes_mes1_aceite0 1500 ) )
(assert (<= 0 comprado_mes1_aceite0 ) )
(assert (<= comprado_mes1_aceite0 1500 ) )
(assert (<= 0 refinado_mes1_aceite0 ) )
(assert (<= refinado_mes1_aceite0 1500 ) )
(assert (<= 0 iniMes_mes1_aceite1 ) )
(assert (<= iniMes_mes1_aceite1 1500 ) )
(assert (<= 0 comprado_mes1_aceite1 ) )
(assert (<= comprado_mes1_aceite1 1500 ) )
(assert (<= 0 refinado_mes1_aceite1 ) )
(assert (<= refinado_mes1_aceite1 1500 ) )
(assert (<= 0 iniMes_mes1_aceite2 ) )
(assert (<= iniMes_mes1_aceite2 1500 ) )
(assert (<= 0 comprado_mes1_aceite2 ) )
(assert (<= comprado_mes1_aceite2 1500 ) )
(assert (<= 0 refinado_mes1_aceite2 ) )
(assert (<= refinado_mes1_aceite2 1500 ) )
(assert (<= 0 iniMes_mes1_aceite3 ) )
(assert (<= iniMes_mes1_aceite3 1500 ) )
(assert (<= 0 comprado_mes1_aceite3 ) )
(assert (<= comprado_mes1_aceite3 1500 ) )
(assert (<= 0 refinado_mes1_aceite3 ) )
(assert (<= refinado_mes1_aceite3 1500 ) )
(assert (<= 0 iniMes_mes1_aceite4 ) )
(assert (<= iniMes_mes1_aceite4 1500 ) )
(assert (<= 0 comprado_mes1_aceite4 ) )
(assert (<= comprado_mes1_aceite4 1500 ) )
(assert (<= 0 refinado_mes1_aceite4 ) )
(assert (<= refinado_mes1_aceite4 1500 ) )
(assert (<= 0 totalRefinado_mes0 ) )
(assert (<= totalRefinado_mes0 7500 ) )
(assert (<= 0 totalRefinado_mes1 ) )
(assert (<= totalRefinado_mes1 7500 ) )
(assert (= iniMes_mes0_aceite0 20 ) )
(assert (= iniMes_mes0_aceite1 20 ) )
(assert (= iniMes_mes0_aceite2 20 ) )
(assert (= iniMes_mes0_aceite3 20 ) )
(assert (= iniMes_mes0_aceite4 20 ) )
(assert (= 20 (- (+ iniMes_mes1_aceite0 comprado_mes1_aceite0 ) refinado_mes1_aceite0 ) ) )
(assert (= 20 (- (+ iniMes_mes1_aceite1 comprado_mes1_aceite1 ) refinado_mes1_aceite1 ) ) )
(assert (= 20 (- (+ iniMes_mes1_aceite2 comprado_mes1_aceite2 ) refinado_mes1_aceite2 ) ) )
(assert (= 20 (- (+ iniMes_mes1_aceite3 comprado_mes1_aceite3 ) refinado_mes1_aceite3 ) ) )
(assert (= 20 (- (+ iniMes_mes1_aceite4 comprado_mes1_aceite4 ) refinado_mes1_aceite4 ) ) )
(assert (= iniMes_mes1_aceite0 (- (+ iniMes_mes0_aceite0 comprado_mes0_aceite0 ) refinado_mes0_aceite0 ) ) )
(assert (= iniMes_mes1_aceite1 (- (+ iniMes_mes0_aceite1 comprado_mes0_aceite1 ) refinado_mes0_aceite1 ) ) )
(assert (= iniMes_mes1_aceite2 (- (+ iniMes_mes0_aceite2 comprado_mes0_aceite2 ) refinado_mes0_aceite2 ) ) )
(assert (= iniMes_mes1_aceite3 (- (+ iniMes_mes0_aceite3 comprado_mes0_aceite3 ) refinado_mes0_aceite3 ) ) )
(assert (= iniMes_mes1_aceite4 (- (+ iniMes_mes0_aceite4 comprado_mes0_aceite4 ) refinado_mes0_aceite4 ) ) )
(assert (<= (+ refinado_mes0_aceite1 refinado_mes0_aceite0 ) 200 ) )
(assert (<= (+ refinado_mes1_aceite1 refinado_mes1_aceite0 ) 200 ) )
(assert (<= (+ refinado_mes0_aceite4 (+ refinado_mes0_aceite3 refinado_mes0_aceite2 ) ) 250 ) )
(assert (<= (+ refinado_mes1_aceite4 (+ refinado_mes1_aceite3 refinado_mes1_aceite2 ) ) 250 ) )
(assert (<= (+ comprado_mes0_aceite0 iniMes_mes0_aceite0 ) 1500 ) )
(assert (<= (+ comprado_mes0_aceite1 iniMes_mes0_aceite1 ) 1500 ) )
(assert (<= (+ comprado_mes0_aceite2 iniMes_mes0_aceite2 ) 1500 ) )
(assert (<= (+ comprado_mes0_aceite3 iniMes_mes0_aceite3 ) 1500 ) )
(assert (<= (+ comprado_mes0_aceite4 iniMes_mes0_aceite4 ) 1500 ) )
(assert (<= (+ comprado_mes1_aceite0 iniMes_mes1_aceite0 ) 1500 ) )
(assert (<= (+ comprado_mes1_aceite1 iniMes_mes1_aceite1 ) 1500 ) )
(assert (<= (+ comprado_mes1_aceite2 iniMes_mes1_aceite2 ) 1500 ) )
(assert (<= (+ comprado_mes1_aceite3 iniMes_mes1_aceite3 ) 1500 ) )
(assert (<= (+ comprado_mes1_aceite4 iniMes_mes1_aceite4 ) 1500 ) )
(assert (= totalRefinado_mes0 (+ refinado_mes0_aceite4 (+ refinado_mes0_aceite3 (+ refinado_mes0_aceite2 (+ refinado_mes0_aceite1 refinado_mes0_aceite0 ) ) ) ) ) )
(assert (= totalRefinado_mes1 (+ refinado_mes1_aceite4 (+ refinado_mes1_aceite3 (+ refinado_mes1_aceite2 (+ refinado_mes1_aceite1 refinado_mes1_aceite0 ) ) ) ) ) )
(assert (<= (+ (* refinado_mes0_aceite4 5.0 ) (+ (* refinado_mes0_aceite3 6.0 ) (+ (* refinado_mes0_aceite2 8.0 ) (+ (* refinado_mes0_aceite1 4.0 ) (* refinado_mes0_aceite0 3.0 ) ) ) ) ) (* totalRefinado_mes0 6 ) ) )
(assert (>= (+ (* refinado_mes0_aceite4 5.0 ) (+ (* refinado_mes0_aceite3 6.0 ) (+ (* refinado_mes0_aceite2 8.0 ) (+ (* refinado_mes0_aceite1 4.0 ) (* refinado_mes0_aceite0 3.0 ) ) ) ) ) (* totalRefinado_mes0 3 ) ) )
(assert (<= (+ (* refinado_mes1_aceite4 5.0 ) (+ (* refinado_mes1_aceite3 6.0 ) (+ (* refinado_mes1_aceite2 8.0 ) (+ (* refinado_mes1_aceite1 4.0 ) (* refinado_mes1_aceite0 3.0 ) ) ) ) ) (* totalRefinado_mes1 6 ) ) )
(assert (>= (+ (* refinado_mes1_aceite4 5.0 ) (+ (* refinado_mes1_aceite3 6.0 ) (+ (* refinado_mes1_aceite2 8.0 ) (+ (* refinado_mes1_aceite1 4.0 ) (* refinado_mes1_aceite0 3.0 ) ) ) ) ) (* totalRefinado_mes1 3 ) ) )
(assert (= ganancias (* 150 (+ refinado_mes1_aceite4 (+ refinado_mes1_aceite3 (+ refinado_mes1_aceite2 (+ refinado_mes1_aceite1 (+ refinado_mes1_aceite0 (+ refinado_mes0_aceite4 (+ refinado_mes0_aceite3 (+ refinado_mes0_aceite2 (+ refinado_mes0_aceite1 refinado_mes0_aceite0 ) ) ) ) ) ) ) ) ) ) ) )
(assert (= costeAlmacMes (* 5 (+ iniMes_mes1_aceite4 (+ iniMes_mes1_aceite3 (+ iniMes_mes1_aceite2 (+ iniMes_mes1_aceite1 iniMes_mes1_aceite0 ) ) ) ) ) ) )
(assert (= costeAceiteCompra (+ (* comprado_mes1_aceite4 11 ) (+ (* comprado_mes1_aceite3 9 ) (+ (* comprado_mes1_aceite2 10 ) (+ (* comprado_mes1_aceite1 10 ) (+ (* comprado_mes1_aceite0 9 ) (+ (* comprado_mes0_aceite4 11 ) (+ (* comprado_mes0_aceite3 10 ) (+ (* comprado_mes0_aceite2 12 ) (+ (* comprado_mes0_aceite1 11 ) (* comprado_mes0_aceite0 10 ) ) ) ) ) ) ) ) ) ) ) )
(assert (= costes (+ 500 (+ costeAceiteCompra costeAlmacMes ) ) ) )
(assert (= beneficio (- ganancias costes ) ) )
(assert (<= (+ (ite (> refinado_mes0_aceite4 0 ) 1 0 ) (+ (ite (> refinado_mes0_aceite3 0 ) 1 0 ) (+ (ite (> refinado_mes0_aceite2 0 ) 1 0 ) (+ (ite (> refinado_mes0_aceite1 0 ) 1 0 ) (+ (ite (> refinado_mes0_aceite0 0 ) 1 0 ) refinado_mes1_aceite2 ) ) ) ) ) 4 ) )
(assert (<= (+ (ite (> refinado_mes1_aceite4 0 ) 1 0 ) (+ (ite (> refinado_mes1_aceite3 0 ) 1 0 ) (+ (ite (> refinado_mes1_aceite2 0 ) 1 0 ) (+ (ite (> refinado_mes1_aceite1 0 ) 1 0 ) (+ (ite (> refinado_mes1_aceite0 0 ) 1 0 ) refinado_mes1_aceite2 ) ) ) ) ) 4 ) )
(assert (=> (> refinado_mes0_aceite0 0 ) (>= refinado_mes0_aceite0 50 ) ) )
(assert (=> (> refinado_mes0_aceite1 0 ) (>= refinado_mes0_aceite1 50 ) ) )
(assert (=> (> refinado_mes0_aceite2 0 ) (>= refinado_mes0_aceite2 50 ) ) )
(assert (=> (> refinado_mes0_aceite3 0 ) (>= refinado_mes0_aceite3 50 ) ) )
(assert (=> (> refinado_mes0_aceite4 0 ) (>= refinado_mes0_aceite4 50 ) ) )
(assert (=> (> refinado_mes1_aceite0 0 ) (>= refinado_mes1_aceite0 50 ) ) )
(assert (=> (> refinado_mes1_aceite1 0 ) (>= refinado_mes1_aceite1 50 ) ) )
(assert (=> (> refinado_mes1_aceite2 0 ) (>= refinado_mes1_aceite2 50 ) ) )
(assert (=> (> refinado_mes1_aceite3 0 ) (>= refinado_mes1_aceite3 50 ) ) )
(assert (=> (> refinado_mes1_aceite4 0 ) (>= refinado_mes1_aceite4 50 ) ) )
(assert (=> (> refinado_mes0_aceite0 0 ) (> refinado_mes0_aceite2 0 ) ) )
(assert (=> (> refinado_mes0_aceite1 0 ) (> refinado_mes0_aceite3 0 ) ) )
(assert (=> (> refinado_mes0_aceite4 0 ) (> refinado_mes0_aceite0 0 ) ) )
(assert (=> (> refinado_mes1_aceite0 0 ) (> refinado_mes1_aceite2 0 ) ) )
(assert (=> (> refinado_mes1_aceite1 0 ) (> refinado_mes1_aceite3 0 ) ) )
(assert (=> (> refinado_mes1_aceite4 0 ) (> refinado_mes1_aceite0 0 ) ) )
(assert (<= 0 (+ comprado_mes1_aceite0 comprado_mes0_aceite0 ) ) )
(assert (<= 200 (+ comprado_mes1_aceite1 comprado_mes0_aceite1 ) ) )
(assert (<= 0 (+ comprado_mes1_aceite2 comprado_mes0_aceite2 ) ) )
(assert (<= 0 (+ comprado_mes1_aceite3 comprado_mes0_aceite3 ) ) )
(assert (<= 0 (+ comprado_mes1_aceite4 comprado_mes0_aceite4 ) ) )
(assert (<= 200 (+ refinado_mes0_aceite4 (+ refinado_mes0_aceite3 (+ refinado_mes0_aceite2 (+ refinado_mes0_aceite1 refinado_mes0_aceite0 ) ) ) ) ) )
(assert (<= 200 (+ refinado_mes1_aceite4 (+ refinado_mes1_aceite3 (+ refinado_mes1_aceite2 (+ refinado_mes1_aceite1 refinado_mes1_aceite0 ) ) ) ) ) )
(assert (=> (> refinado_mes0_aceite3 0 ) (= refinado_mes0_aceite2 0 ) ) )
(assert (=> (> refinado_mes1_aceite3 0 ) (= refinado_mes1_aceite2 0 ) ) )
(assert (>= beneficio 1000 ) )
(assert-soft (and (>= beneficio 1000 ) (< beneficio 1100.0 ) ) :weight 100.0 )
(assert-soft (and (>= beneficio 1100.0 ) (< beneficio 1200.0 ) ) :weight 110.00000000000001 )
(assert-soft (and (>= beneficio 1200.0 ) (< beneficio 1300.0 ) ) :weight 120.0 )
(assert-soft (and (>= beneficio 1300.0 ) (< beneficio 1400.0 ) ) :weight 130.0 )
(assert-soft (and (>= beneficio 1400.0 ) (< beneficio 1500.0 ) ) :weight 140.0 )
(assert-soft (and (>= beneficio 1500.0 ) (< beneficio 1600.0 ) ) :weight 150.0 )
(assert-soft (and (>= beneficio 1600.0 ) (< beneficio 1700.0 ) ) :weight 160.0 )
(assert-soft (and (>= beneficio 1700.0 ) (< beneficio 1800.0 ) ) :weight 170.0 )
(assert-soft (and (>= beneficio 1800.0 ) (< beneficio 1900.0 ) ) :weight 180.0 )
(assert-soft (and (>= beneficio 1900.0 ) (< beneficio 2000 ) ) :weight 190.0 )
(assert-soft (and (>= beneficio 2000 ) (< beneficio 2100.0 ) ) :weight 200.0 )
(assert-soft (and (>= beneficio 2100.0 ) (< beneficio 2200.0 ) ) :weight 210.0 )
(assert-soft (and (>= beneficio 2200.0 ) (< beneficio 2300.0 ) ) :weight 220.00000000000003 )
(assert-soft (and (>= beneficio 2300.0 ) (< beneficio 2400.0 ) ) :weight 229.99999999999997 )
(assert-soft (and (>= beneficio 2400.0 ) (< beneficio 2500.0 ) ) :weight 240.0 )
(assert-soft (and (>= beneficio 2500.0 ) (< beneficio 2600.0 ) ) :weight 250.0 )
(assert-soft (and (>= beneficio 2600.0 ) (< beneficio 2700.0 ) ) :weight 260.0 )
(assert-soft (and (>= beneficio 2700.0 ) (< beneficio 2800.0 ) ) :weight 270.0 )
(assert-soft (and (>= beneficio 2800.0 ) (< beneficio 2900.0 ) ) :weight 280.0 )
(assert-soft (and (>= beneficio 2900.0 ) (< beneficio 3000 ) ) :weight 290.0 )
(assert-soft (and (>= beneficio 3000 ) (< beneficio 3100.0 ) ) :weight 300.0 )
(assert-soft (and (>= beneficio 3100.0 ) (< beneficio 3200.0 ) ) :weight 310.0 )
(assert-soft (and (>= beneficio 3200.0 ) (< beneficio 3300.0 ) ) :weight 320.0 )
(assert-soft (and (>= beneficio 3300.0 ) (< beneficio 3400.0 ) ) :weight 330.0 )
(assert-soft (and (>= beneficio 3400.0 ) (< beneficio 3500.0 ) ) :weight 340.0 )
(assert-soft (and (>= beneficio 3500.0 ) (< beneficio 3600.0 ) ) :weight 350.0 )
(assert-soft (and (>= beneficio 3600.0 ) (< beneficio 3700.0 ) ) :weight 360.0 )
(assert-soft (and (>= beneficio 3700.0 ) (< beneficio 3800.0 ) ) :weight 370.0 )
(assert-soft (and (>= beneficio 3800.0 ) (< beneficio 3900.0 ) ) :weight 380.0 )
(assert-soft (and (>= beneficio 3900.0 ) (< beneficio 4000 ) ) :weight 390.0 )
(assert-soft (and (>= beneficio 4000 ) (< beneficio 4100.0 ) ) :weight 400.0 )
(assert-soft (and (>= beneficio 4100.0 ) (< beneficio 4200.0 ) ) :weight 409.99999999999994 )
(assert-soft (and (>= beneficio 4200.0 ) (< beneficio 4300.0 ) ) :weight 420.0 )
(assert-soft (and (>= beneficio 4300.0 ) (< beneficio 4400.0 ) ) :weight 430.0 )
(assert-soft (and (>= beneficio 4400.0 ) (< beneficio 4500.0 ) ) :weight 440.00000000000006 )
(assert-soft (and (>= beneficio 4500.0 ) (< beneficio 4600.0 ) ) :weight 450.0 )
(assert-soft (and (>= beneficio 4600.0 ) (< beneficio 4700.0 ) ) :weight 459.99999999999994 )
(assert-soft (and (>= beneficio 4700.0 ) (< beneficio 4800.0 ) ) :weight 470.0 )
(assert-soft (and (>= beneficio 4800.0 ) (< beneficio 4900.0 ) ) :weight 480.0 )
(assert-soft (and (>= beneficio 4900.0 ) (< beneficio 5000 ) ) :weight 490.00000000000006 )
(assert-soft (and (>= beneficio 5000 ) (< beneficio 5100.0 ) ) :weight 500.0 )
(assert-soft (and (>= beneficio 5100.0 ) (< beneficio 5200.0 ) ) :weight 509.99999999999994 )
(assert-soft (and (>= beneficio 5200.0 ) (< beneficio 5300.0 ) ) :weight 520.0 )
(assert-soft (and (>= beneficio 5300.0 ) (< beneficio 5400.0 ) ) :weight 530.0 )
(assert-soft (and (>= beneficio 5400.0 ) (< beneficio 5500.0 ) ) :weight 540.0 )
(assert-soft (and (>= beneficio 5500.0 ) (< beneficio 5600.0 ) ) :weight 550.0 )
(assert-soft (and (>= beneficio 5600.0 ) (< beneficio 5700.0 ) ) :weight 560.0 )
(assert-soft (and (>= beneficio 5700.0 ) (< beneficio 5800.0 ) ) :weight 570.0 )
(assert-soft (and (>= beneficio 5800.0 ) (< beneficio 5900.0 ) ) :weight 580.0 )
(assert-soft (and (>= beneficio 5900.0 ) (< beneficio 6000 ) ) :weight 590.0 )
(assert-soft (and (>= beneficio 6000 ) (< beneficio 6100.0 ) ) :weight 600.0 )
(assert-soft (and (>= beneficio 6100.0 ) (< beneficio 6200.0 ) ) :weight 610.0 )
(assert-soft (and (>= beneficio 6200.0 ) (< beneficio 6300.0 ) ) :weight 620.0 )
(assert-soft (and (>= beneficio 6300.0 ) (< beneficio 6400.0 ) ) :weight 630.0 )
(assert-soft (and (>= beneficio 6400.0 ) (< beneficio 6500.0 ) ) :weight 640.0 )
(assert-soft (and (>= beneficio 6500.0 ) (< beneficio 6600.0 ) ) :weight 650.0 )
(assert-soft (and (>= beneficio 6600.0 ) (< beneficio 6700.0 ) ) :weight 660.0 )
(assert-soft (and (>= beneficio 6700.0 ) (< beneficio 6800.0 ) ) :weight 670.0 )
(assert-soft (and (>= beneficio 6800.0 ) (< beneficio 6900.0 ) ) :weight 680.0 )
(assert-soft (and (>= beneficio 6900.0 ) (< beneficio 7000 ) ) :weight 690.0 )
(assert-soft (and (>= beneficio 7000 ) (< beneficio 7100.0 ) ) :weight 700.0 )
(assert-soft (and (>= beneficio 7100.0 ) (< beneficio 7200.0 ) ) :weight 710.0 )
(assert-soft (and (>= beneficio 7200.0 ) (< beneficio 7300.0 ) ) :weight 720.0 )
(assert-soft (and (>= beneficio 7300.0 ) (< beneficio 7400.0 ) ) :weight 730.0 )
(assert-soft (and (>= beneficio 7400.0 ) (< beneficio 7500.0 ) ) :weight 740.0 )
(assert-soft (and (>= beneficio 7500.0 ) (< beneficio 7600.0 ) ) :weight 750.0 )
(assert-soft (and (>= beneficio 7600.0 ) (< beneficio 7700.0 ) ) :weight 760.0 )
(assert-soft (and (>= beneficio 7700.0 ) (< beneficio 7800.0 ) ) :weight 770.0 )
(assert-soft (and (>= beneficio 7800.0 ) (< beneficio 7900.0 ) ) :weight 780.0 )
(assert-soft (and (>= beneficio 7900.0 ) (< beneficio 8000 ) ) :weight 790.0 )
(assert-soft (and (>= beneficio 8000 ) (< beneficio 8100.0 ) ) :weight 800.0 )
(assert-soft (and (>= beneficio 8100.0 ) (< beneficio 8200.0 ) ) :weight 810.0 )
(assert-soft (and (>= beneficio 8200.0 ) (< beneficio 8300.0 ) ) :weight 819.9999999999999 )
(assert-soft (and (>= beneficio 8300.0 ) (< beneficio 8400.0 ) ) :weight 830.0000000000001 )
(assert-soft (and (>= beneficio 8400.0 ) (< beneficio 8500.0 ) ) :weight 840.0 )
(assert-soft (and (>= beneficio 8500.0 ) (< beneficio 8600.0 ) ) :weight 850.0 )
(assert-soft (and (>= beneficio 8600.0 ) (< beneficio 8700.0 ) ) :weight 860.0 )
(assert-soft (and (>= beneficio 8700.0 ) (< beneficio 8800.0 ) ) :weight 869.9999999999999 )
(assert-soft (and (>= beneficio 8800.0 ) (< beneficio 8900.0 ) ) :weight 880.0000000000001 )
(assert-soft (and (>= beneficio 8900.0 ) (< beneficio 9000 ) ) :weight 890.0 )
(assert-soft (and (>= beneficio 9000 ) (< beneficio 9100.0 ) ) :weight 900.0 )
(assert-soft (and (>= beneficio 9100.0 ) (< beneficio 9200.0 ) ) :weight 910.0 )
(assert-soft (and (>= beneficio 9200.0 ) (< beneficio 9300.0 ) ) :weight 919.9999999999999 )
(assert-soft (and (>= beneficio 9300.0 ) (< beneficio 9400.0 ) ) :weight 930.0000000000001 )
(assert-soft (and (>= beneficio 9400.0 ) (< beneficio 9500.0 ) ) :weight 940.0 )
(assert-soft (and (>= beneficio 9500.0 ) (< beneficio 9600.0 ) ) :weight 950.0 )
(assert-soft (and (>= beneficio 9600.0 ) (< beneficio 9700.0 ) ) :weight 960.0 )
(assert-soft (and (>= beneficio 9700.0 ) (< beneficio 9800.0 ) ) :weight 969.9999999999999 )
(assert-soft (and (>= beneficio 9800.0 ) (< beneficio 9900.0 ) ) :weight 980.0000000000001 )
(assert-soft (and (>= beneficio 9900.0 ) (< beneficio 10000 ) ) :weight 990.0 )
(assert-soft (and (>= beneficio 10000 ) (< beneficio 10100.0 ) ) :weight 1000.0 )
(assert-soft (and (>= beneficio 10100.0 ) (< beneficio 10200.0 ) ) :weight 1010.0 )
(assert-soft (and (>= beneficio 10200.0 ) (< beneficio 10300.0 ) ) :weight 1019.9999999999999 )
(assert-soft (and (>= beneficio 10300.0 ) (< beneficio 10400.0 ) ) :weight 1030.0 )
(assert-soft (and (>= beneficio 10400.0 ) (< beneficio 10500.0 ) ) :weight 1040.0 )
(assert-soft (and (>= beneficio 10500.0 ) (< beneficio 10600.0 ) ) :weight 1050.0 )
(assert-soft (and (>= beneficio 10600.0 ) (< beneficio 10700.0 ) ) :weight 1060.0 )
(assert-soft (and (>= beneficio 10700.0 ) (< beneficio 10800.0 ) ) :weight 1070.0 )
(assert-soft (and (>= beneficio 10800.0 ) (< beneficio 10900.0 ) ) :weight 1080.0 )
(assert-soft (and (>= beneficio 10900.0 ) (< beneficio 11000 ) ) :weight 1090.0 )
(assert-soft (>= beneficio 11000 ) :weight 10000.0 )
(check-sat)
(get-objectives)
(get-value (iniMes_mes0_aceite0) )
(get-value (comprado_mes0_aceite0) )
(get-value (refinado_mes0_aceite0) )
(get-value (iniMes_mes0_aceite1) )
(get-value (comprado_mes0_aceite1) )
(get-value (refinado_mes0_aceite1) )
(get-value (iniMes_mes0_aceite2) )
(get-value (comprado_mes0_aceite2) )
(get-value (refinado_mes0_aceite2) )
(get-value (iniMes_mes0_aceite3) )
(get-value (comprado_mes0_aceite3) )
(get-value (refinado_mes0_aceite3) )
(get-value (iniMes_mes0_aceite4) )
(get-value (comprado_mes0_aceite4) )
(get-value (refinado_mes0_aceite4) )
(get-value (totalRefinado_mes0) )
(get-value (iniMes_mes1_aceite0) )
(get-value (comprado_mes1_aceite0) )
(get-value (refinado_mes1_aceite0) )
(get-value (iniMes_mes1_aceite1) )
(get-value (comprado_mes1_aceite1) )
(get-value (refinado_mes1_aceite1) )
(get-value (iniMes_mes1_aceite2) )
(get-value (comprado_mes1_aceite2) )
(get-value (refinado_mes1_aceite2) )
(get-value (iniMes_mes1_aceite3) )
(get-value (comprado_mes1_aceite3) )
(get-value (refinado_mes1_aceite3) )
(get-value (iniMes_mes1_aceite4) )
(get-value (comprado_mes1_aceite4) )
(get-value (refinado_mes1_aceite4) )
(get-value (totalRefinado_mes1) )
(get-value (beneficio) )
